\* Problem: Unknown *\

Maximize
 obj: + xp_0_0 + xp_0_1 + xp_0_2 + xp_0_3 + xp_0_4 + xp_1_0 + xp_1_1
 + xp_1_2 + xp_2_0 + xp_2_1 + xp_2_2 + xp_2_3 + xp_3_0 + xp_3_1 + xp_4_0
 + xp_5_0 + xp_5_1 + xp_6_0 + xp_7_0 + xp_7_1 + xp_7_2 + xp_8_0 + xp_8_1
 + xp_9_0 + xp_10_0 + xp_11_0 + xp_11_1 + xp_11_2 + xp_11_3 + xp_12_0
 + xp_13_0 + xp_13_1 + xp_14_0 + xp_14_1 + xp_15_0 + xp_16_0 + xp_16_1
 + xp_17_0 + xp_17_1 + xp_17_2 + xp_17_3 + xp_17_4 + xp_17_5 + xp_18_0
 + xp_18_1 + xp_18_2 + xp_18_3 + xp_19_0 + xp_19_1 + xp_19_2 + xp_19_3
 + xp_19_4 + xp_20_0 + xp_20_1 + xp_20_2 + xp_21_0 + xp_21_1 + xp_21_2
 + xp_21_3 + xp_22_0 + xp_22_1 + xp_22_2 + xp_22_3 + xp_23_0 + xp_23_1
 + xp_23_2 + xp_23_3

Subject To
 r_1: 0 xp_0_0 <= 26.3893805309735
 r_2: + xp_18_3 + xp_5_1 + xp_2_2 <= 26.1838588989845
 r_3: + xp_23_3 + xp_21_2 + xp_18_2 <= 26.9620253164557
 r_4: + xp_17_1 + xp_15_0 <= 27.3778920308483
 r_5: + xp_18_0 <= 25.8704453441296
 r_6: + xp_18_1 <= 27.1553784860558
 r_7: 0 xp_0_0 <= 26.3893805309735
 r_8: + xp_22_2 + xp_17_4 + xp_11_2 <= 26.1838588989845
 r_9: + xp_11_1 + xp_3_1 <= 26.9620253164557
 r_10: + xp_17_3 + xp_3_0 <= 27.3778920308483
 r_11: + xp_18_1 + xp_11_3 <= 25.8704453441296
 r_12: + xp_11_0 <= 27.1553784860558
 r_13: 0 xp_0_0 <= 28.3056478405316
 r_14: + xp_21_1 + xp_19_4 + xp_14_0 + xp_0_2 <= 26.1838588989845
 r_15: + xp_21_0 + xp_19_1 <= 26.9620253164557
 r_16: + xp_22_1 + xp_0_4 + xp_0_3 + xp_0_1 <= 27.6367006487488
 r_17: + xp_0_0 <= 25.8704453441296
 r_18: + xp_21_2 + xp_4_0 <= 26.3893805309735
 r_19: + xp_19_0 <= 26.3893805309735
 r_20: + xp_21_3 + xp_19_3 + xp_19_2 + xp_14_1 <= 28.3056478405316
 r_21: + xp_20_1 <= 26.1838588989845
 r_22: + xp_21_1 + xp_7_1 <= 26.9620253164557
 r_23: + xp_22_3 + xp_22_2 <= 27.6367006487488
 r_24: + xp_23_2 + xp_17_4 + xp_7_2 <= 26.7924528301887
 r_25: 0 xp_0_0 <= 28.3056478405316
 r_26: + xp_18_3 + xp_0_2 <= 25.8704453441296
 r_27: + xp_11_2 <= 26.1838588989845
 r_28: + xp_19_4 + xp_19_3 <= 26.1838588989845
 r_29: + xp_20_2 <= 26.9620253164557
 r_30: + xp_2_0 <= 26.9620253164557
 r_31: + xp_23_3 + xp_18_2 + xp_3_1 + xp_2_3 <= 26.7924528301887
 r_32: + xp_2_1 <= 28.3056478405316
 r_33: + xp_11_1 + xp_2_2 <= 26.9620253164557
 r_34: + xp_19_1 <= 26.9620253164557
 r_35: 0 xp_0_0 <= 27.6367006487488
 r_36: + xp_9_0 <= 27.6367006487488
 r_37: + xp_13_1 + xp_8_1 + xp_0_3 <= 26.7924528301887
 r_38: + xp_1_1 <= 28.7484662576687
 r_39: + xp_17_2 + xp_0_4 <= 27.3778920308483
 r_40: + xp_0_1 <= 25.8704453441296
 r_41: + xp_12_0 + xp_2_3 <= 26.7924528301887
 r_42: + xp_7_2 <= 26.7924528301887
 r_43: + xp_16_0 <= 26.7924528301887
 r_44: + xp_23_3 + xp_23_2 + xp_23_1 + xp_16_1 + xp_1_2
 <= 28.7484662576687
 r_45: + xp_17_4 + xp_3_1 <= 27.3778920308483
 r_46: + xp_18_2 + xp_0_3 <= 25.8704453441296
 r_47: + xp_16_1 + xp_13_1 <= 28.7484662576687
 r_48: + xp_13_0 <= 28.7484662576687
 r_49: + xp_17_5 <= 27.3778920308483
 r_50: 0 xp_0_0 <= 25.8704453441296
 r_51: + xp_8_1 + xp_1_1 <= 27.3778920308483
 r_52: + xp_8_0 + xp_1_2 <= 27.3778920308483
 r_53: + xp_1_0 <= 27.3778920308483
 r_54: + xp_0_4 <= 25.8704453441296
 r_55: 0 xp_0_0 <= 27.3778920308483
 r_56: 0 xp_0_0 <= 27.3778920308483
 r_57: + xp_22_1 <= 25.8704453441296
 r_58: + xp_23_2 + xp_22_3 + xp_5_0 <= 25.8704453441296
 r_59: + xp_22_0 + xp_17_2 <= 25.8704453441296
 r_60: + xp_23_1 + xp_6_0 <= 25.8704453441296
 r_61: + xp_23_0 + xp_17_5 <= 25.8704453441296
 r_62: + xp_17_0 <= 25.8704453441296
 r_63: + xp_23_3 + xp_17_1 + xp_11_3 + xp_5_1 <= 25.8704453441296
 r_64: + xp_22_2 + xp_17_4 + xp_17_3 <= 25.8704453441296
 r_65: + xp_20_1 + xp_19_3 + xp_14_1 + xp_7_2 + xp_7_1 + xp_2_1
 <= 28.3056478405316
 r_66: + xp_21_3 + xp_20_2 + xp_7_0 <= 28.3056478405316
 r_67: + xp_19_2 + xp_10_0 <= 28.3056478405316
 r_68: + xp_20_0 <= 28.3056478405316

Bounds
 0 <= xp_0_0 <= 29.0960703055274
 0 <= xp_0_1 <= 12.4697444166546
 0 <= xp_0_2 <= 4.15658147221821
 0 <= xp_0_3 <= 4.15658147221821
 0 <= xp_0_4 <= 8.31316294443641
 0 <= xp_1_0 <= 18.3001708562814
 0 <= xp_1_1 <= 14.1435893840632
 0 <= xp_1_2 <= 0.55794832246953
 0 <= xp_2_0 <= 21.2750715468905
 0 <= xp_2_1 <= 5.63307402961661
 0 <= xp_2_2 <= 4.64874565801768
 0 <= xp_2_3 <= 0.984328371598938
 0 <= xp_3_0 <= 20.782907361091
 0 <= xp_3_1 <= 8.31316294443641
 0 <= xp_4_0 <= 24.5594110234896
 0 <= xp_5_0 <= 17.5424364453497
 0 <= xp_5_1 <= 7.01697457813989
 0 <= xp_6_0 <= 22.1034699211406
 0 <= xp_7_0 <= 15.1303514341141
 0 <= xp_7_1 <= 3.02607028682283
 0 <= xp_7_2 <= 3.02607028682283
 0 <= xp_8_0 <= 16.3144658941752
 0 <= xp_8_1 <= 2.71907764902921
 0 <= xp_9_0 <= 17.6520766731332
 0 <= xp_10_0 <= 17.6520766731332
 0 <= xp_11_0 <= 24.2767801097047
 0 <= xp_11_1 <= 12.1383900548523
 0 <= xp_11_2 <= 11.80703569305
 0 <= xp_11_3 <= 7.65045422083183
 0 <= xp_12_0 <= 16.5776024408555
 0 <= xp_13_0 <= 13.8146687007129
 0 <= xp_13_1 <= 2.30244478345215
 0 <= xp_14_0 <= 13.1568273340123
 0 <= xp_14_1 <= 2.19280455566871
 0 <= xp_15_0 <= 15.1961355707842
 0 <= xp_16_0 <= 12.4989859673117
 0 <= xp_16_1 <= 2.08316432788528
 0 <= xp_17_0 <= 24.6617377461727
 0 <= xp_17_1 <= 1.93941519254082
 0 <= xp_17_2 <= 6.09599666475903
 0 <= xp_17_3 <= 3.87883038508164
 0 <= xp_17_4 <= 4.15658147221821
 0 <= xp_17_5 <= 1.93941519254082
 0 <= xp_18_0 <= 19.978883180594
 0 <= xp_18_1 <= 11.6657202361576
 0 <= xp_18_2 <= 3.35255729172115
 0 <= xp_18_3 <= 5.83286011807878
 0 <= xp_19_0 <= 26.5499833424998
 0 <= xp_19_1 <= 4.83148352757154
 0 <= xp_19_2 <= 5.76707598140872
 0 <= xp_19_3 <= 1.61049450919051
 0 <= xp_19_4 <= 1.61049450919051
 0 <= xp_20_0 <= 27.9411973961234
 0 <= xp_20_1 <= 7.15829003503236
 0 <= xp_20_2 <= 4.50256284422123
 0 <= xp_21_0 <= 24.5618447019416
 0 <= xp_21_1 <= 6.67587303278524
 0 <= xp_21_2 <= 1.25964578028352
 0 <= xp_21_3 <= 5.41622725250173
 0 <= xp_22_0 <= 19.7474218630228
 0 <= xp_22_1 <= 2.08073064943329
 0 <= xp_22_2 <= 8.31316294443641
 0 <= xp_22_3 <= 6.2373121216515
 0 <= xp_23_0 <= 28.0605848074592
 0 <= xp_23_1 <= 3.12109597414994
 0 <= xp_23_2 <= 1.04036532471665
 0 <= xp_23_3 <= 4.15658147221821

End
